792,64
1020,67
663,288
334,583
269,705
741,406
705,423
735,300
699,349
536,511
225,554
415,448
444,369
558,237
681,-74
956,131
602,-97
542,-21
558,237
654,491
681,466
699,349
927,745
912,860
536,511
474,438
415,448
469,618
663,288
792,64
